La2 Zr30 O64
1.0
  10.6032930259636160    0.0000000000000000    0.0000000000000006
   0.0000000000000016   10.2652852011239890    0.0000000000000006
   0.0000000000000000    0.0000000000000000   10.3137016696098964
La Zr O
2 30 64
direct
   0.0045562144556468    0.6241103204761789    0.6193640807375745 La
   0.5045526337877829    0.1241048737129535    0.6193632662378187 La
   0.5135684045673901    0.6314327171852384    0.6254253659775731 Zr
   0.0151167510690118    0.6326535823657214    0.1251955884186671 Zr
   0.5173983124728907    0.6334737734218795    0.1256689846429737 Zr
   0.0135671978351969    0.1314280704601568    0.6254264280964155 Zr
   0.0173975548130387    0.1334692975908628    0.1256690406902300 Zr
   0.5151145833598577    0.1326485966816232    0.1251970681904048 Zr
   0.2632637713174485    0.8598640449348822    0.6299687112637221 Zr
   0.7648449025654279    0.8694188362420008    0.6241786042207954 Zr
   0.2633371542832882    0.8683914745078283    0.1240948472788636 Zr
   0.7672559317939499    0.8678875651162631    0.1221166596160710 Zr
   0.2648438070388498    0.3694220616951427    0.6241778542582661 Zr
   0.7632616723079420    0.3598704978928060    0.6299685336975220 Zr
   0.2672537899879190    0.3678928527166497    0.1221172281389932 Zr
   0.7633350991542306    0.3683969658343983    0.1240943616081756 Zr
   0.4830951067635731    0.8619053126814190    0.8785156518423690 Zr
   0.9857708847051768    0.8660438671806953    0.8741802642755635 Zr
   0.4823343941748541    0.8663887448298951    0.3726939424328395 Zr
   0.9853437984539937    0.8724414511406309    0.3726999160638698 Zr
   0.4857713145199680    0.3660492958024947    0.8741806340315992 Zr
   0.9830973011451770    0.3619094318663708    0.8785173858135850 Zr
   0.4853436714083524    0.3724475384315937    0.3727016848282524 Zr
   0.9823358754527139    0.3663938634847839    0.3726951071590913 Zr
   0.2336796358640688    0.6306936535484099    0.8789360549208449 Zr
   0.7328099261079162    0.6313530826544521    0.8740910026244758 Zr
   0.2357047972884071    0.6358588449801247    0.3705224340718614 Zr
   0.7346290509424678    0.6375889931577881    0.3764644797564131 Zr
   0.2328103968591937    0.1313476332706385    0.8740920816348980 Zr
   0.7336821770775999    0.1306885028726488    0.8789370536904286 Zr
   0.2346305348386072    0.1375833714942217    0.3764652716640104 Zr
   0.7357075289067103    0.1358536345872976    0.3705219615161606 Zr
   0.1239254971108433    0.7742934987613471    0.7558483809958463 O
   0.6079537114383969    0.7606172450356873    0.7520830875291338 O
   0.1124694691468735    0.7692893738345866    0.2453268812662204 O
   0.6144509040669748    0.7685571085491829    0.2485670854937278 O
   0.1079524492049332    0.2606177925759112    0.7520835440570558 O
   0.6239275088642021    0.2742979833906265    0.7558500718766761 O
   0.1144503121621461    0.2685579167742493    0.2485676030708859 O
   0.6124702204996706    0.2692903808508623    0.2453274871264492 O
   0.0775243218694606    0.5280958042766982    0.4227858323725672 O
   0.6847809497552350    0.5349083305135393    0.6962457642805805 O
   0.1867327077957893    0.5367129275960573    0.1874205183834798 O
   0.6819452715565930    0.5327108651693941    0.2007200256522800 O
   0.1847826288077811    0.0349016982500336    0.6962450839690818 O
   0.5775194712652006    0.0280823114098437    0.4227827778690720 O
   0.1819479463090327    0.0327006958688331    0.2007182114664293 O
   0.6867370338272948    0.0367023983160427    0.1874184055695718 O
   0.3276109343657005    0.9798323353110082    0.4581395267932034 O
   0.9396512703031914    0.9610190573338049    0.6944330739814778 O
   0.4305947250251294    0.9669723326617958    0.1966527233776772 O
   0.9320904950035421    0.9704701639515834    0.1997577162044237 O
   0.4396530196156076    0.4610272612703095    0.6944316825490900 O
   0.8276095744338221    0.4798418313270039    0.4581382904863727 O
   0.4320928868379620    0.4704798973612813    0.1997550398653561 O
   0.9305985170876576    0.4669822303081716    0.1966500648860720 O
   0.3632175008997865    0.7152865434744239    0.7499050843067127 O
   0.8537104235007688    0.7432435044863451    0.7556317059845910 O
   0.3646231870013762    0.7355269491692129    0.2480443529472138 O
   0.8640556695035922    0.7338829736704160    0.2443029878788983 O
   0.3537061898377992    0.2432472715775376    0.7556325244045656 O
   0.8632201653732792    0.2152892710992280    0.7499062193200496 O
   0.3640534100704411    0.2338863988522431    0.2443038795818905 O
   0.8646245193787335    0.2355301793363312    0.2480452871307138 O
   0.0656150394700390    0.5294493625200165    0.9483450247563251 O
   0.5675298393368655    0.5312611329848428    0.9510876489380656 O
   0.0775243218694606    0.5280958042766982    0.4227858323725672 O
   0.5707898576612828    0.5364528317079713    0.4455239328897100 O
   0.0675264752675697    0.0312511035348915    0.9510852940855770 O
   0.5656123413954726    0.0294392919489078    0.9483445064941785 O
   0.0707851649948663    0.0364417148246284    0.4455223016663574 O
   0.5775194712652006    0.0280823114098437    0.4227827778690720 O
   0.3848566241681490    0.7372247648574675    0.5003466635058799 O
   0.8754184412729722    0.7472453068117701    0.4863289796653668 O
   0.3856721706453907    0.7316132392518928    0.0017308252631468 O
   0.8882043717419921    0.7316380783706953    0.9977488085132119 O
   0.3754168566949944    0.2472492280209117    0.4863304822561056 O
   0.8848593852517993    0.2372282751799021    0.5003476417512670 O
   0.3882041820977584    0.2316407544265768    0.9977501396031295 O
   0.8856752759559571    0.2316170557256633    0.0017305961368881 O
   0.4214633549866365    0.9451717468799169    0.7123215356208951 O
   0.8215407223533367    0.9669733004085437    0.9508485852636387 O
   0.4305947250251294    0.9669723326617958    0.1966527233776772 O
   0.9320904950035421    0.9704701639515834    0.1997577162044237 O
   0.3215363904041022    0.4669835314426995    0.9508470006687145 O
   0.9214674683666915    0.4451815308432107    0.7123194339510570 O
   0.4320928868379620    0.4704798973612813    0.1997550398653561 O
   0.9305985170876576    0.4669822303081716    0.1966500648860720 O
   0.1394784003853917    0.7741373387351468    0.4892995326744088 O
   0.6325233136012657    0.7707292527807134    0.5004981670162595 O
   0.1350765954895625    0.7650350645705024    0.0008223307951092 O
   0.6381876850321013    0.7641363509119729    0.0005919151151152 O
   0.1325224178545546    0.2707293044223691    0.5004997522184640 O
   0.6394807068824009    0.2741393412972271    0.4893017554884573 O
   0.1381865348359694    0.2641368404142057    0.0005925984979105 O
   0.6350781958790681    0.2650357512612603    0.0008240110933566 O
