Zr               O                      
   1.00000000000000     
     5.2534812585301403    0.0000000000000000    0.0000000000000000
     0.0000000000000000    5.0477997715844696    0.0000000000000000
     0.0000000000000000    0.0000000000000000    5.0675932957653602
   Zr   O 
     4     8
Direct
  0.0312127480507343  0.7672969754316910  0.2507706532235474
  0.5312127325381581  0.2327031498844079  0.2507707043330214
  0.9683161953338413  0.2326928802374226  0.7507693510245446
  0.4683161773473188  0.7673072616619407  0.7507692970015682
  0.2672756968990981  0.0384969172534397  0.5034441465779054
  0.1322694684147407  0.5705322951424563  0.6128530002692258
  0.6322693953764684  0.4294676314001507  0.6128533271418704
  0.7672757410597555  0.9615031112968850  0.5034442027714334
  0.3672502677383491  0.5705325472433813  0.1128506864611296
  0.7322480334488830  0.9615032105486634  0.0034454450670580
  0.8672503482762863  0.4294673496393884  0.1128510283364861
  0.2322480725163771  0.0384967882601615  0.0034453877921976
 
             NaN             NaN             NaN
             NaN             NaN             NaN
             NaN             NaN             NaN
             NaN             NaN             NaN
             NaN             NaN             NaN
             NaN             NaN             NaN
             NaN             NaN             NaN
             NaN             NaN             NaN
             NaN             NaN             NaN
             NaN             NaN             NaN
             NaN             NaN             NaN
             NaN             NaN             NaN
