Zr               O                      
   1.00000000000000     
     5.2534812585301403    0.0000000000000000    0.0000000000000000
     0.0000000000000000    5.0477997715844696    0.0000000000000000
     0.0000000000000000    0.0000000000000000    5.0675932957653602
   Zr   O 
     4     8
Direct
  0.0311974214496402  0.7673055733859542  0.2513224229278208
  0.5311973897447118  0.2326948308503276  0.2513223690398974
  0.9683217746138553  0.2327071422706410  0.7513153961855892
  0.4683217233345829  0.7672932487916739  0.7513154375253919
  0.2567561412554156  0.0384828707492417  0.5023996579342267
  0.1322921967405435  0.5705089212193712  0.6962093973574781
  0.6322919326092205  0.4294908465161313  0.6962091956985716
  0.7567560841275380  0.9615170484189761  0.5023991306557605
  0.3672320915268372  0.5705070873013014  0.1962048954086413
  0.7427729101617615  0.9615194135078085  0.0023979473004516
  0.8672323645072666  0.4294926644494410  0.1962046987480477
  0.2427728469286237  0.0384804705390991  0.0023984786181472
 
             NaN             NaN             NaN
             NaN             NaN             NaN
             NaN             NaN             NaN
             NaN             NaN             NaN
             NaN             NaN             NaN
             NaN             NaN             NaN
             NaN             NaN             NaN
             NaN             NaN             NaN
             NaN             NaN             NaN
             NaN             NaN             NaN
             NaN             NaN             NaN
             NaN             NaN             NaN
