Zr               O                      
   1.00000000000000     
     5.2534812585301403    0.0000000000000000    0.0000000000000000
     0.0000000000000000    5.0477997715844696    0.0000000000000000
     0.0000000000000000    0.0000000000000000    5.0675932957653602
   Zr   O 
     4     8
Direct
  0.0311718771144953  0.7673199033097262  0.2522420391016098
  0.5311718184223011  0.2326809657935272  0.2522418102180239
  0.9683310734138786  0.2327309123260051  0.7522254714539969
  0.4683309666466897  0.7672698940078959  0.7522256717317646
  0.2392235485159446  0.0384594599088999  0.5006588435281074
  0.1323300772835481  0.5704699646808962  0.8351367258378986
  0.6323294946638072  0.4295295383760873  0.8351356432930856
  0.7392233225738423  0.9615402769557946  0.5006573437963056
  0.3672017978409841  0.5704646540645015  0.3351285769878274
  0.7603143713498923  0.9615464184397169  0.0006521176894410
  0.8672023915589122  0.4295348557995169  0.3351274827673052
  0.2603141376157012  0.0384532743373285  0.0006536299947300
 
             NaN             NaN             NaN
             NaN             NaN             NaN
             NaN             NaN             NaN
             NaN             NaN             NaN
             NaN             NaN             NaN
             NaN             NaN             NaN
             NaN             NaN             NaN
             NaN             NaN             NaN
             NaN             NaN             NaN
             NaN             NaN             NaN
             NaN             NaN             NaN
             NaN             NaN             NaN
