ALGO = Normal
EDIFF = 1e-08
EDIFFG = -0.001
ENMAX = 600
GGA = Ps
IBRION = -1
ISIF = 2
ISMEAR = 0
ISPIN = 1
ISTART = 0
ISYM = 0
KPAR = 8.0
LREAL = False
LWAVEH5 = F
NBANDS = 464
NCORE = 24.0
NELM = 200
NELMIN = 5
NSW = 0
PREC = Accurate
SIGMA = 0.01
