Hf32 O64
1.0
  10.4425001143999996    0.0000000000000000    0.0000000000000000
   0.0000000000000000   10.0336608887000001    0.0000000000000000
   0.0000000000000000    0.0000000000000000   10.0730047226000003
Hf O
32 64
direct
   0.4999978490000000    0.0000014190000000    0.0000001950000000 Hf
   0.4999978490000000    0.0000014190000000    0.5000001950000000 Hf
   0.4999978490000000    0.5000014189999999    0.0000001950000000 Hf
   0.4999978490000000    0.5000014189999999    0.5000001950000000 Hf
   0.9999978490000000    0.0000014190000000    0.0000001950000000 Hf
   0.9999978490000000    0.0000014190000000    0.5000001950000000 Hf
   0.9999978490000000    0.5000014189999999    0.0000001950000000 Hf
   0.9999978490000000    0.5000014189999999    0.5000001950000000 Hf
   0.0331269040000000    0.2321766080000000    0.2500006570000000 Hf
   0.0331269040000000    0.2321766080000000    0.7500006570000000 Hf
   0.0331269040000000    0.7321766080000000    0.2500006570000000 Hf
   0.0331269040000000    0.7321766080000000    0.7500006570000000 Hf
   0.5331269040000000    0.2321766080000000    0.2500006570000000 Hf
   0.5331269040000000    0.2321766080000000    0.7500006570000000 Hf
   0.5331269040000000    0.7321766080000000    0.2500006570000000 Hf
   0.5331269040000000    0.7321766080000000    0.7500006570000000 Hf
   0.2831269140000000    0.0000034620000000    0.2500006840000000 Hf
   0.2831269140000000    0.0000034620000000    0.7500006840000000 Hf
   0.2831269140000000    0.5000034630000000    0.2500006840000000 Hf
   0.2831269140000000    0.5000034630000000    0.7500006840000000 Hf
   0.7831269140000000    0.0000034620000000    0.2500006840000000 Hf
   0.7831269140000000    0.0000034620000000    0.7500006840000000 Hf
   0.7831269140000000    0.5000034630000000    0.2500006840000000 Hf
   0.7831269140000000    0.5000034630000000    0.7500006840000000 Hf
   0.2499978570000000    0.2321786430000000    0.0000001700000000 Hf
   0.2499978570000000    0.2321786430000000    0.5000001700000000 Hf
   0.2499978570000000    0.7321786430000000    0.0000001700000000 Hf
   0.2499978570000000    0.7321786430000000    0.5000001700000000 Hf
   0.7499978570000000    0.2321786430000000    0.0000001700000000 Hf
   0.7499978570000000    0.2321786430000000    0.5000001700000000 Hf
   0.7499978570000000    0.7321786430000000    0.0000001700000000 Hf
   0.7499978570000000    0.7321786430000000    0.5000001700000000 Hf
   0.3324109750000000    0.4023098370000000    0.0685545100000000 O
   0.3324109750000000    0.4023098370000000    0.5685545110000000 O
   0.3324109750000000    0.9023098380000000    0.0685545100000000 O
   0.3324109750000000    0.9023098380000000    0.5685545110000000 O
   0.8324109750000001    0.4023098370000000    0.0685545100000000 O
   0.8324109750000001    0.4023098370000000    0.5685545110000000 O
   0.8324109750000001    0.9023098380000000    0.0685545100000000 O
   0.8324109750000001    0.9023098380000000    0.5685545110000000 O
   0.3841062830000000    0.1364247230000000    0.3742774720000000 O
   0.3841062830000000    0.1364247230000000    0.8742774720000001 O
   0.3841062830000000    0.6364247230000000    0.3742774720000000 O
   0.3841062830000000    0.6364247230000000    0.8742774720000001 O
   0.8841062830000000    0.1364247230000000    0.3742774720000000 O
   0.8841062830000000    0.1364247230000000    0.8742774720000001 O
   0.8841062830000000    0.6364247230000000    0.3742774720000000 O
   0.8841062830000000    0.6364247230000000    0.8742774720000001 O
   0.4507161910000000    0.4023099270000000    0.3185534900000000 O
   0.4507161910000000    0.4023099270000000    0.8185534910000000 O
   0.4507161910000000    0.9023099270000000    0.3185534900000000 O
   0.4507161910000000    0.9023099270000000    0.8185534910000000 O
   0.9507161910000000    0.4023099270000000    0.3185534900000000 O
   0.9507161910000000    0.4023099270000000    0.8185534910000000 O
   0.9507161910000000    0.9023099270000000    0.3185534900000000 O
   0.9507161910000000    0.9023099270000000    0.8185534910000000 O
   0.3990195720000000    0.1364246190000000    0.1242770610000000 O
   0.3990195720000000    0.1364246190000000    0.6242770610000000 O
   0.3990195720000000    0.6364246180000001    0.1242770610000000 O
   0.3990195720000000    0.6364246180000001    0.6242770610000000 O
   0.8990195720000000    0.1364246190000000    0.1242770610000000 O
   0.8990195720000000    0.1364246190000000    0.6242770610000000 O
   0.8990195720000000    0.6364246180000001    0.1242770610000000 O
   0.8990195720000000    0.6364246180000001    0.6242770610000000 O
   0.2007162280000000    0.3298700350000000    0.3185533270000000 O
   0.2007162280000000    0.3298700350000000    0.8185533270000001 O
   0.2007162280000000    0.8298700350000000    0.3185533270000000 O
   0.2007162280000000    0.8298700350000000    0.8185533270000001 O
   0.7007162280000000    0.3298700350000000    0.3185533270000000 O
   0.7007162280000000    0.3298700350000000    0.8185533270000001 O
   0.7007162280000000    0.8298700350000000    0.3185533270000000 O
   0.7007162280000000    0.8298700350000000    0.8185533270000001 O
   0.1490195920000000    0.0957553810000000    0.1242770320000000 O
   0.1490195920000000    0.0957553810000000    0.6242770320000000 O
   0.1490195920000000    0.5957553810000000    0.1242770320000000 O
   0.1490195920000000    0.5957553810000000    0.6242770320000000 O
   0.6490195920000000    0.0957553810000000    0.1242770320000000 O
   0.6490195920000000    0.0957553810000000    0.6242770320000000 O
   0.6490195920000000    0.5957553810000000    0.1242770320000000 O
   0.6490195920000000    0.5957553810000000    0.6242770320000000 O
   0.0824109360000000    0.3298701110000000    0.0685543400000000 O
   0.0824109360000000    0.3298701110000000    0.5685543400000000 O
   0.0824109360000000    0.8298701110000000    0.0685543400000000 O
   0.0824109360000000    0.8298701110000000    0.5685543400000000 O
   0.5824109360000000    0.3298701110000000    0.0685543400000000 O
   0.5824109360000000    0.3298701110000000    0.5685543400000000 O
   0.5824109360000000    0.8298701110000000    0.0685543400000000 O
   0.5824109360000000    0.8298701110000000    0.5685543400000000 O
   0.1341062600000000    0.0957552920000000    0.3742774440000000 O
   0.1341062600000000    0.0957552920000000    0.8742774440000000 O
   0.1341062600000000    0.5957552910000000    0.3742774440000000 O
   0.1341062600000000    0.5957552910000000    0.8742774440000000 O
   0.6341062600000000    0.0957552920000000    0.3742774440000000 O
   0.6341062600000000    0.0957552920000000    0.8742774440000000 O
   0.6341062600000000    0.5957552910000000    0.3742774440000000 O
   0.6341062600000000    0.5957552910000000    0.8742774440000000 O
