Zr               O                      
   1.00000000000000     
     5.2534812585301403    0.0000000000000000    0.0000000000000000
     0.0000000000000000    5.0477997715844696    0.0000000000000000
     0.0000000000000000    0.0000000000000000    5.0675932957653602
   Zr   O 
     4     8
Direct
  0.0312076391836982  0.7672998414164454  0.2509545764583052
  0.5312076182736760  0.2327003768730478  0.2509545925686467
  0.9683180550938459  0.2326976342484954  0.7509513660782261
  0.4683180260097402  0.7673025907051851  0.7509513438428428
  0.2637691783512039  0.0384922350853785  0.5030959836966744
  0.1322770445233417  0.5705245038347613  0.6406384659653099
  0.6322769077873858  0.4294753697721490  0.6406386166607660
  0.7637691887490163  0.9615077570042487  0.5030958453995424
  0.3672442090011785  0.5705240605960213  0.1406354227769668
  0.7357563256865092  0.9615086115350451  0.0030962791448559
  0.8672443536866083  0.4294757879094107  0.1406355851403447
  0.2357563306537926  0.0384913490198073  0.0030964180675142
 
             NaN             NaN             NaN
             NaN             NaN             NaN
             NaN             NaN             NaN
             NaN             NaN             NaN
             NaN             NaN             NaN
             NaN             NaN             NaN
             NaN             NaN             NaN
             NaN             NaN             NaN
             NaN             NaN             NaN
             NaN             NaN             NaN
             NaN             NaN             NaN
             NaN             NaN             NaN
