Zr               O                      
   1.00000000000000     
     5.2534812585301403    0.0000000000000000    0.0000000000000000
     0.0000000000000000    5.0477997715844696    0.0000000000000000
     0.0000000000000000    0.0000000000000000    5.0675932957653602
   Zr   O 
     4     8
Direct
  0.0311820948485533  0.7673141713402174  0.2518741926320942
  0.5311820469512654  0.2326865118162473  0.2518740337467733
  0.9683273538938693  0.2327214043038595  0.7518614413466338
  0.4683272693218470  0.7672792359214071  0.7518615780492155
  0.2462365856117330  0.0384688242450366  0.5013551692905551
  0.1323149250663462  0.5704855472962862  0.7795657944457304
  0.6323144698419725  0.4295140616321049  0.7795650642552800
  0.7462364271953206  0.9615309855410672  0.5013540585400875
  0.3672139153153253  0.5704816273592215  0.2795591043561529
  0.7532977868746400  0.9615356164669535  0.0013504495338452
  0.8672143807382540  0.4295179792594865  0.2795583691596022
  0.2532976213408702  0.0384641528180367  0.0013515694440969
 
             NaN             NaN             NaN
             NaN             NaN             NaN
             NaN             NaN             NaN
             NaN             NaN             NaN
             NaN             NaN             NaN
             NaN             NaN             NaN
             NaN             NaN             NaN
             NaN             NaN             NaN
             NaN             NaN             NaN
             NaN             NaN             NaN
             NaN             NaN             NaN
             NaN             NaN             NaN
