La2 Zr30 O64                            
   1.00000000000000     
    10.6032930259636160    0.0000000000000000    0.0000000000000006
     0.0000000000000016   10.2652852011239890    0.0000000000000006
     0.0000000000000000    0.0000000000000000   10.3137016696098964
  La              Zr              O             
     2    30    64
Direct
     0.0044057825407708    0.6240896391640364    0.6325336005260415
     0.5044057098871841    0.1240869927815644    0.6325330492232978
     0.5134284843990309    0.6313914041726698    0.6264810562154117
     0.0149480375693692    0.6326723748449015    0.1266793227490911
     0.5172623652749684    0.6334771002366969    0.1262051508995419
     0.0134283206227046    0.1313880366331624    0.6264806576854794
     0.0172625665680583    0.1334735461625050    0.1262048506486328
     0.5149475166851095    0.1326689326186180    0.1266788332807358
     0.2631543446368397    0.8598505027852295    0.6218952654407145
     0.7647238169247959    0.8694355334894938    0.6277268613135986
     0.2631869734842430    0.8684508289408446    0.1277920916214519
     0.7670943084248347    0.8679731990903332    0.1297920416807087
     0.2647221420355571    0.3694410940161074    0.6277253714451101
     0.7631557369124130    0.3598544664442117    0.6218943130991478
     0.2670938675194719    0.3679777707687726    0.1297919376124776
     0.7631871957571680    0.3684552762321744    0.1277920102739389
     0.4822110615763055    0.8664366229238177    0.8791924833722816
     0.9852427165097338    0.8725098805266361    0.8791900211568384
     0.4830841907366837    0.8619282869063137    0.3733409731816796
     0.9857116514006471    0.8660667859995237    0.3777282936672188
     0.4852429161476794    0.3725145088779293    0.8791900401738260
     0.9822120202431435    0.3664416084236040    0.8791916601040837
     0.4857114510785220    0.3660707985290251    0.3777275910642109
     0.9830842491681272    0.3619326562663717    0.3733419879289662
     0.2355854907275372    0.6358669332008240    0.8813522978576301
     0.7345358562279398    0.6375920106108898    0.8754173011056591
     0.2335876708530902    0.6306820051806457    0.3729326882080335
     0.7327455836202543    0.6313112552107603    0.3778116555184809
     0.2345351725192345    0.1375886658273182    0.8754171924873616
     0.7355857909007709    0.1358630657559073    0.8813511848996286
     0.2327451353974870    0.1313080849141317    0.3778112669374986
     0.7335880976386402    0.1306789015532602    0.3729325719217004
     0.1394101226384619    0.7741372320154457    0.7625787791032218
     0.6324810419006411    0.7706902281373208    0.7513738910612755
     0.1350466877451212    0.7649867543806399    0.2510430223863676
     0.6381754119441919    0.7640738399680285    0.2512881846126434
     0.1324810003672867    0.2706897344765395    0.7513739921241922
     0.6394096026318945    0.2741367947466776    0.7625789002768675
     0.1381750687687775    0.2640735641305461    0.2512880780274029
     0.6350463614026101    0.2649864676420294    0.2510428378701293
     0.1870618615672296    0.5210911267837547    0.5403146910440088
     0.6845993996746063    0.5347831516005129    0.5555329287657699
     0.1865393732978876    0.5366796495899855    0.0642973585800699
     0.6817276429391712    0.5326319440232202    0.0510200954782844
     0.1845989071114171    0.0347855291777833    0.5555323904982900
     0.6870599581647674    0.0210948785850491    0.5403126480643383
     0.1817264569264113    0.0326347538426409    0.0510192647779481
     0.6865381275403845    0.0366826967933497    0.0642965543509115
     0.4212902093444828    0.9452249198793352    0.5394110152597217
     0.9395065538087433    0.9610213609791570    0.5573929298815885
     0.4303832694410926    0.9671005928450364    0.0550683918413811
     0.9318500721335661    0.9706156816575455    0.0519793793064877
     0.4395057355972519    0.4610185953378745    0.5573920239072635
     0.9212890771309066    0.4452221531111266    0.5394098645790294
     0.4318492331482943    0.4706128494409648    0.0519781066517538
     0.9303820861098349    0.4670975657656818    0.0550675379515856
     0.3848074501382707    0.7372998411054796    0.7515746565328902
     0.8753712808650579    0.7472949697854147    0.7656433957701001
     0.3856517561179423    0.7316468330204329    0.2501902204171335
     0.8881914927629554    0.7316785567880891    0.2542253606183839
     0.3753709992640341    0.2472949053169320    0.7656430369564717
     0.8848069071683480    0.2372995283124014    0.7515748086624460
     0.3881913139648646    0.2316784632086685    0.2542251135589133
     0.8856509823272488    0.2316464110368193    0.2501897264528757
     0.0774415867563764    0.5280463253278951    0.8289639971734211
     0.5706878537596480    0.5364371689529716    0.8063037258474165
     0.0656298970678233    0.5293098630925822    0.3032801394946682
     0.5675418976502881    0.5311338925261759    0.3006322290648220
     0.0706890772189291    0.0364400137051686    0.8063031178704486
     0.5774433672379681    0.0280501781195299    0.8289635186807867
     0.0675427538961865    0.0311366870206430    0.3006314437167545
     0.5656309520298336    0.0293124757816073    0.3032793467619527
     0.3630234812496527    0.7152141717126298    0.5020744214204141
     0.8535501574606978    0.7432319611346068    0.4963186133225551
     0.3643996997639042    0.7356160924300276    0.0038688545835896
     0.8638143727435079    0.7339408311419191    0.0076815983060646
     0.3535507650239244    0.2432317678063561    0.4963185409271821
     0.8630232644590659    0.2152141296968658    0.5020740954020811
     0.3638149529939040    0.2339406894838472    0.0076810880474731
     0.8643998682685321    0.2356159275966463    0.0038687616699606
     0.3275075809597893    0.9799274015239506    0.7935898374105731
     0.8231089258257402    0.9801503629269519    0.7984874191693108
     0.3150244589651677    0.9667158546605518    0.2997498661652945
     0.8215465120110225    0.9670724989650342    0.3009291395408309
     0.3231107659003771    0.4801472407402335    0.7984861715066750
     0.8275084077417324    0.4799249216103488    0.7935895834426401
     0.3215478576136649    0.4670697288005508    0.3009280986025341
     0.8150252012599247    0.4667132808967269    0.2997485182115880
     0.1237805812488731    0.7741953078427212    0.4960276759305050
     0.6077602776973592    0.7604719989294432    0.4997607725028609
     0.1122340207433335    0.7692869243195074    0.0065511958861121
     0.6142366241669034    0.7685548201194620    0.0033216279280646
     0.1077607732452549    0.2604719284731007    0.4997607479268301
     0.6237805028375155    0.2741944692426079    0.4960274538278072
     0.1142369558984211    0.2685544743358302    0.0033216056275957
     0.6122344423725081    0.2692867405106776    0.0065509053609379
