Zr32 O64                                
   1.00000000000000     
    10.5959868440168510    0.0000000000000000    0.0000000000000000
     0.0000000000000000   10.1811374961398151    0.0000000000000000
     0.0000000000000000    0.0000000000000000   10.2210605955594893
  La              Zr              O             
     2    30    63
Direct
     0.2629155686908075    0.6353400482025446    0.6190040024607179
     0.7653004105927873    0.1414662859752831    0.6228552503885009
     0.0036666542271602    0.3936415029636651    0.1312414867208056
     0.9977699973826174    0.4140639964903088    0.6179158533737666
     0.9974378358557551    0.8907547900888048    0.1218857013450563
     0.0007757372816939    0.8902491776597560    0.6184625674295043
     0.4983849205704848    0.3908405429811006    0.1212012587021567
     0.4983696273378572    0.3870660510165093    0.6211901490105215
     0.5012669034018506    0.8906816461406468    0.1168895772555550
     0.5069034649232587    0.8960008698740901    0.6264331173881346
     0.2480117174946466    0.1256375032066230    0.1215775877439541
     0.2718567324846391    0.1215489866096028    0.6109957381748541
     0.2520673343429996    0.6257285839563902    0.1209656119568024
     0.7527221710817699    0.1285696423184693    0.1241775114036036
     0.7477755056376020    0.6261123784238787    0.1242786784844378
     0.7450420390205525    0.6274164214657081    0.6242697252328091
     0.5323465349987960    0.1210802503826643    0.3677813908185908
     0.5337671602649191    0.1276306601932984    0.8773206548405588
     0.5290220880517366    0.6210220800671813    0.3724406505047237
     0.5324486649065443    0.6220976131529632    0.8755476120744493
     0.0306217835198045    0.1221262892211992    0.3770398416549020
     0.0176126550953738    0.1272044809597750    0.8834597932169833
     0.0309542489886018    0.6293392283833635    0.3646367598008637
     0.0330396637111067    0.6288150799765129    0.8778041783768888
     0.2769377665138756    0.3859475255490895    0.3716496782256232
     0.2781868456486225    0.3911109559767496    0.8747820826976550
     0.2848261955802388    0.8898896108084844    0.3658257961544619
     0.2788160543615827    0.9018721265277360    0.8699031945004922
     0.7789946485135074    0.3943699023241730    0.3720744849637304
     0.7913224787821943    0.3961637664656004    0.8805570155641017
     0.7793028186359667    0.8889736914096418    0.3721018601997164
     0.7789832935367805    0.8895824064243012    0.8707448327459930
     0.1503458939567411    0.9924970390125517    0.2463943366128886
     0.1540651707466575    0.0374245741865497    0.7474804515669098
     0.1541378302165581    0.4917479394873653    0.2439781843575291
     0.1375603713445108    0.4776966132380407    0.7514377316078793
     0.6540045812707026    0.9904439284363233    0.2435897979810629
     0.6460205852072213    0.9829533069213905    0.7522580311601208
     0.6496343353737629    0.4902952787330987    0.2465339364827723
     0.6607752720651886    0.4856409534512586    0.7485588346254440
     0.0883567650229227    0.2308015799635872    0.2114914587957632
     0.0794306520720930    0.7216393018353522    0.1824911810333713
     0.0768874893233687    0.7383294768064245    0.7087263997579735
     0.5820522560314223    0.2228030842498396    0.1853288582801132
     0.5791410452660452    0.2352355441868628    0.7073786653333930
     0.5813213116909302    0.7246447374472940    0.1930225680367041
     0.5732049876095660    0.7174366298455890    0.6939063393837035
     0.3344665471139576    0.2865948920888083    0.2015691397548876
     0.3160130429325301    0.2930306914392165    0.6983659306478097
     0.3339114501408321    0.7932278892880598    0.1892553911335464
     0.3289075276377268    0.8303846790780964    0.6933783052896104
     0.8354276864747419    0.2908666158913470    0.2071091292589511
     0.9168668129831959    0.2751596783723830    0.7395069087306645
     0.8324077440444031    0.7898084071541457    0.1975487804466947
     0.8242757202817111    0.7949375582295383    0.6896139528377726
     0.3997057275364249    0.5249972470554278    0.2424139208465938
     0.4111663940524772    0.5121308875872139    0.7538168176862273
     0.4018926163930246    0.0243959163718265    0.2414642986752510
     0.4110815940656741    0.0420540226854561    0.7445414898849879
     0.8990481348406988    0.5262463403555253    0.2485450231628840
     0.8960457214389722    0.5352121180919591    0.7478652467206377
     0.9014232559015554    0.0273036277966228    0.2438980188822532
     0.9132038814980675    0.0098599680219919    0.7554870846495694
     0.1870456448710096    0.2301658748904957    0.9507704156246328
     0.1801624545881544    0.2333403474897685    0.4660393279516702
     0.2016710071190526    0.7280999102467844    0.9387889920525230
     0.1911851102828365    0.7296015192551367    0.4185444857715413
     0.7037126587581216    0.2266053270743717    0.9393705682490774
     0.6812835557450084    0.2358608016267759    0.4296466755304787
     0.6972321527754696    0.7228022050834875    0.9456810501216041
     0.6949851025059023    0.7220787537469948    0.4422094564041860
     0.3809854927428917    0.5281109189606373    0.9960462554816650
     0.3880010368572106    0.5083357227852470    0.4841032904031419
     0.3774972431213928    0.0281439175532054    0.9951331621403471
     0.3886398017265738    0.0167890191643993    0.4909426422006096
     0.8826085915704426    0.5267979435877963    0.0010232388837770
     0.8782752127420108    0.5268869123968124    0.5004063824530065
     0.8773160143624404    0.0252220043364823    0.9968328629690963
     0.8904563966545594    0.0164371428044538    0.4879896576059707
     0.4410701610929923    0.2894024727903682    0.9510298734863372
     0.4305667355828521    0.2685895285921436    0.4596566416187141
     0.4478580480729247    0.7939785721839705    0.9392517756435180
     0.4400621400538892    0.7778875086683297    0.4533567746262077
     0.9422081156594901    0.2845805060399058    0.9778026270490303
     0.9306624994156664    0.2815713366279062    0.4686670688337288
     0.9432327083009745    0.7895742014886264    0.9493865833669075
     0.9447772106555911    0.7851641569513756    0.4477708485940625
     0.1250600321060560    0.9910414603649189    0.9966202942702953
     0.1380639364985007    0.9881533637298796    0.4972127619792189
     0.1309967169403622    0.4940274405933330    0.9993019894664154
     0.1252898413406462    0.4910402803292528    0.4853632201219485
     0.6316928819830774    0.9926156955888096    0.9985825475029859
     0.6303511006116058    0.9860787360148013    0.4895868033227994
     0.6325133903445931    0.4876170879225804    0.9984303618840712
     0.6289500809479237    0.4887939886056170    0.4993437283555616
 
  0.00000000E+00  0.00000000E+00  0.00000000E+00
  0.00000000E+00  0.00000000E+00  0.00000000E+00
  0.00000000E+00  0.00000000E+00  0.00000000E+00
  0.00000000E+00  0.00000000E+00  0.00000000E+00
  0.00000000E+00  0.00000000E+00  0.00000000E+00
  0.00000000E+00  0.00000000E+00  0.00000000E+00
  0.00000000E+00  0.00000000E+00  0.00000000E+00
  0.00000000E+00  0.00000000E+00  0.00000000E+00
  0.00000000E+00  0.00000000E+00  0.00000000E+00
  0.00000000E+00  0.00000000E+00  0.00000000E+00
  0.00000000E+00  0.00000000E+00  0.00000000E+00
  0.00000000E+00  0.00000000E+00  0.00000000E+00
  0.00000000E+00  0.00000000E+00  0.00000000E+00
  0.00000000E+00  0.00000000E+00  0.00000000E+00
  0.00000000E+00  0.00000000E+00  0.00000000E+00
  0.00000000E+00  0.00000000E+00  0.00000000E+00
  0.00000000E+00  0.00000000E+00  0.00000000E+00
  0.00000000E+00  0.00000000E+00  0.00000000E+00
  0.00000000E+00  0.00000000E+00  0.00000000E+00
  0.00000000E+00  0.00000000E+00  0.00000000E+00
  0.00000000E+00  0.00000000E+00  0.00000000E+00
  0.00000000E+00  0.00000000E+00  0.00000000E+00
  0.00000000E+00  0.00000000E+00  0.00000000E+00
  0.00000000E+00  0.00000000E+00  0.00000000E+00
  0.00000000E+00  0.00000000E+00  0.00000000E+00
  0.00000000E+00  0.00000000E+00  0.00000000E+00
  0.00000000E+00  0.00000000E+00  0.00000000E+00
  0.00000000E+00  0.00000000E+00  0.00000000E+00
  0.00000000E+00  0.00000000E+00  0.00000000E+00
  0.00000000E+00  0.00000000E+00  0.00000000E+00
  0.00000000E+00  0.00000000E+00  0.00000000E+00
  0.00000000E+00  0.00000000E+00  0.00000000E+00
  0.00000000E+00  0.00000000E+00  0.00000000E+00
  0.00000000E+00  0.00000000E+00  0.00000000E+00
  0.00000000E+00  0.00000000E+00  0.00000000E+00
  0.00000000E+00  0.00000000E+00  0.00000000E+00
  0.00000000E+00  0.00000000E+00  0.00000000E+00
  0.00000000E+00  0.00000000E+00  0.00000000E+00
  0.00000000E+00  0.00000000E+00  0.00000000E+00
  0.00000000E+00  0.00000000E+00  0.00000000E+00
  0.00000000E+00  0.00000000E+00  0.00000000E+00
  0.00000000E+00  0.00000000E+00  0.00000000E+00
  0.00000000E+00  0.00000000E+00  0.00000000E+00
  0.00000000E+00  0.00000000E+00  0.00000000E+00
  0.00000000E+00  0.00000000E+00  0.00000000E+00
  0.00000000E+00  0.00000000E+00  0.00000000E+00
  0.00000000E+00  0.00000000E+00  0.00000000E+00
  0.00000000E+00  0.00000000E+00  0.00000000E+00
  0.00000000E+00  0.00000000E+00  0.00000000E+00
  0.00000000E+00  0.00000000E+00  0.00000000E+00
  0.00000000E+00  0.00000000E+00  0.00000000E+00
  0.00000000E+00  0.00000000E+00  0.00000000E+00
  0.00000000E+00  0.00000000E+00  0.00000000E+00
  0.00000000E+00  0.00000000E+00  0.00000000E+00
  0.00000000E+00  0.00000000E+00  0.00000000E+00
  0.00000000E+00  0.00000000E+00  0.00000000E+00
  0.00000000E+00  0.00000000E+00  0.00000000E+00
  0.00000000E+00  0.00000000E+00  0.00000000E+00
  0.00000000E+00  0.00000000E+00  0.00000000E+00
  0.00000000E+00  0.00000000E+00  0.00000000E+00
  0.00000000E+00  0.00000000E+00  0.00000000E+00
  0.00000000E+00  0.00000000E+00  0.00000000E+00
  0.00000000E+00  0.00000000E+00  0.00000000E+00
  0.00000000E+00  0.00000000E+00  0.00000000E+00
  0.00000000E+00  0.00000000E+00  0.00000000E+00
  0.00000000E+00  0.00000000E+00  0.00000000E+00
  0.00000000E+00  0.00000000E+00  0.00000000E+00
  0.00000000E+00  0.00000000E+00  0.00000000E+00
  0.00000000E+00  0.00000000E+00  0.00000000E+00
  0.00000000E+00  0.00000000E+00  0.00000000E+00
  0.00000000E+00  0.00000000E+00  0.00000000E+00
  0.00000000E+00  0.00000000E+00  0.00000000E+00
  0.00000000E+00  0.00000000E+00  0.00000000E+00
  0.00000000E+00  0.00000000E+00  0.00000000E+00
  0.00000000E+00  0.00000000E+00  0.00000000E+00
  0.00000000E+00  0.00000000E+00  0.00000000E+00
  0.00000000E+00  0.00000000E+00  0.00000000E+00
  0.00000000E+00  0.00000000E+00  0.00000000E+00
  0.00000000E+00  0.00000000E+00  0.00000000E+00
  0.00000000E+00  0.00000000E+00  0.00000000E+00
  0.00000000E+00  0.00000000E+00  0.00000000E+00
  0.00000000E+00  0.00000000E+00  0.00000000E+00
  0.00000000E+00  0.00000000E+00  0.00000000E+00
  0.00000000E+00  0.00000000E+00  0.00000000E+00
  0.00000000E+00  0.00000000E+00  0.00000000E+00
  0.00000000E+00  0.00000000E+00  0.00000000E+00
  0.00000000E+00  0.00000000E+00  0.00000000E+00
  0.00000000E+00  0.00000000E+00  0.00000000E+00
  0.00000000E+00  0.00000000E+00  0.00000000E+00
  0.00000000E+00  0.00000000E+00  0.00000000E+00
  0.00000000E+00  0.00000000E+00  0.00000000E+00
  0.00000000E+00  0.00000000E+00  0.00000000E+00
  0.00000000E+00  0.00000000E+00  0.00000000E+00
  0.00000000E+00  0.00000000E+00  0.00000000E+00
  0.00000000E+00  0.00000000E+00  0.00000000E+00
