La2 Zr30 O63
1.0
  10.6010579169199257    0.0000000000000000    0.0000000000000000
   0.0000000000000000   10.1860100286598065    0.0000000000000000
   0.0000000000000000    0.0000000000000000   10.2259522346478438
La Zr O
2 30 63
direct
   0.2362550018542054    0.6294394423105669    0.6400605744060154 La
   0.7404182078658351    0.1348889858757099    0.6325030102351887 La
   0.0020994367881273    0.3911984059977276    0.1268044355350835 Zr
   0.5013016581701387    0.8919611677703290    0.1322017900164799 Zr
   0.4961247602284862    0.8915526442283696    0.6241564455022173 Zr
   0.2497623357186172    0.1244854216971961    0.1267098749323136 Zr
   0.2471100968628539    0.1276231111199764    0.6228378354117556 Zr
   0.2502777144886223    0.6297643855793684    0.1304390105823031 Zr
   0.7453551351743387    0.1275895708213269    0.1297605570741493 Zr
   0.7522399320836189    0.6246277939961381    0.1240417870833628 Zr
   0.9866365690896211    0.3963208297867311    0.6133734296460573 Zr
   0.9982101323008411    0.8869392347374079    0.1324104478419878 Zr
   0.9970030148059442    0.8983487548581454    0.6202211444463495 Zr
   0.5014748837942217    0.3929526335755578    0.1267383548240439 Zr
   0.4997677982919163    0.3993973378324652    0.6211061231532935 Zr
   0.7470782367948060    0.6308349582217530    0.6267912704736655 Zr
   0.4678871623643212    0.1278621152680182    0.3773615624739102 Zr
   0.4666414229611700    0.1204733694909550    0.8739180505370022 Zr
   0.4662942005370646    0.6282377575548697    0.3757601759159402 Zr
   0.4741075437354937    0.6270016224659017    0.8842322263111658 Zr
   0.9682973073032712    0.1265020240237766    0.3699720429278064 Zr
   0.9608090644871534    0.1064975858152079    0.8907745487739742 Zr
   0.9655825282494982    0.6278531267136853    0.3741698925611265 Zr
   0.9700599246785028    0.6196972263163231    0.8770751675960422 Zr
   0.2200110898865199    0.3925316432589198    0.3786824722744203 Zr
   0.2398376890896504    0.3905829073117496    0.8911684549188646 Zr
   0.2180016043283130    0.8968080732797826    0.3766698367965650 Zr
   0.2159323035569338    0.8933357807250596    0.8798776369812387 Zr
   0.7168511430217470    0.3963603772781413    0.3705729432001850 Zr
   0.7224824153382639    0.3930666325902757    0.8739312007178789 Zr
   0.7196905741819104    0.8926400787851576    0.3783802817510897 Zr
   0.7136359818192493    0.8845686380591242    0.8773929765899225 Zr
   0.1201073823476875    0.0268261027540860    0.2510511726271989 O
   0.1092715956197874    0.0354144580104588    0.7562855475804914 O
   0.1217959866632021    0.5264223742441911    0.2538216354305370 O
   0.1056592096992372    0.4699188004296061    0.7686573936219356 O
   0.6214018676777940    0.0264391512051944    0.2548897722986780 O
   0.6051973005790373    0.0133069038152759    0.7632203416573816 O
   0.6197778709456340    0.5277923071725863    0.2485952425730914 O
   0.6231639849401389    0.5209339818052472    0.7509653987901045 O
   0.0571025155034807    0.2909112040359768    0.2957859639778178 O
   0.0502049613896073    0.7929329675526186    0.3039161989707808 O
   0.0636604088059081    0.7752911359670343    0.7926099827664934 O
   0.5520176729464905    0.2893296395432974    0.2930508838358182 O
   0.5739441481992276    0.2746678327678236    0.7921198158363515 O
   0.5540722495946911    0.7930157067879298    0.3057238783297599 O
   0.5546671515483309    0.7809127697246384    0.7973281932055389 O
   0.3013602973169424    0.2284688112744472    0.2984327993470450 O
   0.2987759156998099    0.2244626041627211    0.8015041053911208 O
   0.2987982690963902    0.7285657192211428    0.3070893435787848 O
   0.3080246355139925    0.7263113541691528    0.8372443571176807 O
   0.7997441730370957    0.2287521373160407    0.3013188780568226 O
   0.8593857693929121    0.2545764186831203    0.8040932836536878 O
   0.8012996635478836    0.7270729586065418    0.2995003921211058 O
   0.8030747026360083    0.7217858644009086    0.8110952357727921 O
   0.3698203790571920    0.4918155132973696    0.2538887496053708 O
   0.3810250884044800    0.4856183821906938    0.7668010140917884 O
   0.3714241900003391    0.9957507878114437    0.2510095829546297 O
   0.3607416075862004    0.9865042851600481    0.7514557891679579 O
   0.8716332972768142    0.4930425251892226    0.2485039801914580 O
   0.8687949902465739    0.4996804220816223    0.7449165877341882 O
   0.8682166837684782    0.9923137227477273    0.2498992164991992 O
   0.8667304651824380    0.9801892679267358    0.7639779681498774 O
   0.9187074176683084    0.2371473232675572    0.5332835212226231 O
   0.9189388939868722    0.7231734670906071    0.0519266515516934 O
   0.9176647247748169    0.7250021542061357    0.5539331584165528 O
   0.0976482526506519    0.0192269499711745    0.0069535181344095 O
   0.0980464774675391    0.0408025530643434    0.5010666061029488 O
   0.1059955765285690    0.5282787560344409    0.0072468607924960 O
   0.0869539302904205    0.5199566116283606    0.4956686195037122 O
   0.5948847261778037    0.0273959095554416    0.0069940037287933 O
   0.1547796817482025    0.2793248740710046    0.0350398824558893 O
   0.1637664816825718    0.2955892770798853    0.5593824468319125 O
   0.1676308766968114    0.7948276207443331    0.0592802450149890 O
   0.1586321265320269    0.8133304353491921    0.5469352014918896 O
   0.6663329478966259    0.2902920619391234    0.0458418366043888 O
   0.6530815946560239    0.3102720173341183    0.5351631702148036 O
   0.6670371382645173    0.7902455706309071    0.0538255756329277 O
   0.6724469213483075    0.8016297179019488    0.5597657953523471 O
   0.3537903788399503    0.4943884766283037    0.0121273693449435 O
   0.3563324225939932    0.4826377345726450    0.5002289034077589 O
   0.3475395565654432    0.9926607465483398    0.0029633481418959 O
   0.3450433980854265    0.9963463904399266    0.4996948024338087 O
   0.8541158811197617    0.4871464090771790    0.0001526922106751 O
   0.8422975886645246    0.4972368312012883    0.4976239337505680 O
   0.8440410404844521    0.9898744161726355    0.0050791977589594 O
   0.8590351517365261    0.9849772733918156    0.4959238511616217 O
   0.4087300615862527    0.2353914646988046    0.0423194409696296 O
   0.4154136116517509    0.2251746979481202    0.5547627312104495 O
   0.4244438889175534    0.7221363430024890    0.0681407970721981 O
   0.4181897331032596    0.7330173554966180    0.5467434116757420 O
   0.9156880957417437    0.2204902214026410    0.0616716923988966 O
   0.5886630448235677    0.0190503871668945    0.4960187792053042 O
   0.6059215473800720    0.5240483046094363    0.0011971560927093 O
   0.5984645602605083    0.5433706493736056    0.5018139446855555 O
