Zr               O
   1.00000000000000
   5.2534812585301403   0.0000000000000000   0.0000000000000000
   0.0000000000000000   5.0477997715844696   0.0000000000000000
   0.0000000000000000   0.0000000000000000   5.0675932957653602
Zr               O
4  8  
Direct
  0.0312076391836982  0.7672998414164450  0.2509545764583050  
  0.5312076182736760  0.2327003768730480  0.2509545925686470  
  0.9683180550938461  0.2326976342484950  0.7509513660782260  
  0.4683180260097400  0.7673025907051850  0.7509513438428430  
  0.2637691783512040  0.0384922350853785  0.5030959836966740  
  0.1557614896099370  0.5705238337051950  0.5906375052042560  
  0.6557614960767780  0.4294760414940980  0.5906376540651830  
  0.7637691887490160  0.9615077570042490  0.5030958453995420  
  0.3437597639145910  0.5705247307255870  0.0906363835380262  
  0.7357563256865089  0.9615086115350450  0.0030962791448559  
  0.8437597653972160  0.4294751161874610  0.0906365477359259  
  0.2357563306537930  0.0384913490198073  0.0030964180675142  
