Zr               O                      
   1.00000000000000     
     5.2534812585301403    0.0000000000000000    0.0000000000000000
     0.0000000000000000    5.0477997715844696    0.0000000000000000
     0.0000000000000000    0.0000000000000000    5.0675932957653602
   Zr   O 
     4     8
Direct
  0.0311897581490967  0.7673098723630858  0.2515983077799575
  0.5311897183479886  0.2326906713332875  0.2515982013933353
  0.9683245642538623  0.2327142732872503  0.7515884187661115
  0.4683244963282149  0.7672862423565405  0.7515885077873037
  0.2514963634335743  0.0384758474971392  0.5018774136123909
  0.1323035609034449  0.5704972342578287  0.7378875959016042
  0.6323032012255965  0.4295024540741181  0.7378871299769258
  0.7514962556614293  0.9615240169800217  0.5018765945979240
  0.3672230034210813  0.5704943573302614  0.2378819998823971
  0.7480353485182007  0.9615275149873810  0.0018741984171484
  0.8672233726227603  0.4295053218544638  0.2378815339538249
  0.2480352341347469  0.0384723116785679  0.0018750240311221
 
             NaN             NaN             NaN
             NaN             NaN             NaN
             NaN             NaN             NaN
             NaN             NaN             NaN
             NaN             NaN             NaN
             NaN             NaN             NaN
             NaN             NaN             NaN
             NaN             NaN             NaN
             NaN             NaN             NaN
             NaN             NaN             NaN
             NaN             NaN             NaN
             NaN             NaN             NaN
