Zr               O                      
   1.00000000000000     
     5.2534812585301403    0.0000000000000000    0.0000000000000000
     0.0000000000000000    5.0477997715844696    0.0000000000000000
     0.0000000000000000    0.0000000000000000    5.0675932957653602
   Zr   O 
     4     8
Direct
  0.0311744315480098  0.7673184703173490  0.2521500774842309
  0.5311743755545422  0.2326823522992072  0.2521498661002113
  0.9683301435338763  0.2327285353204687  0.7521344639271561
  0.4683300423154790  0.7672722294862737  0.7521346483111273
  0.2409768077898917  0.0384618009929341  0.5008329249687193
  0.1323262892292476  0.5704738603347437  0.8212439929898565
  0.6323257384583485  0.4295256691900917  0.8212429985336342
  0.7409765987292118  0.9615379541021127  0.5008315224822510
  0.3672048272095694  0.5704688973881815  0.3212362088299088
  0.7585602252310792  0.9615437179465260  0.0008267006505420
  0.8672053888537476  0.4295306366645093  0.3212352043653794
  0.2585600085469935  0.0384559939575055  0.0008281148570717
 
             NaN             NaN             NaN
             NaN             NaN             NaN
             NaN             NaN             NaN
             NaN             NaN             NaN
             NaN             NaN             NaN
             NaN             NaN             NaN
             NaN             NaN             NaN
             NaN             NaN             NaN
             NaN             NaN             NaN
             NaN             NaN             NaN
             NaN             NaN             NaN
             NaN             NaN             NaN
