Zr               O                      
   1.00000000000000     
     5.2534812585301403    0.0000000000000000    0.0000000000000000
     0.0000000000000000    5.0477997715844696    0.0000000000000000
     0.0000000000000000    0.0000000000000000    5.0675932957653602
   Zr   O 
     4     8
Direct
  0.0312101936172127  0.7672984084240682  0.2508626148409263
  0.5312101754059171  0.2327017633787278  0.2508626484508341
  0.9683171252138436  0.2326952572429590  0.7508603585513853
  0.4683171016785295  0.7673049261835629  0.7508603204222055
  0.2655224376251510  0.0384945761694127  0.5032700651372863
  0.1322732564690412  0.5705283994886088  0.6267457331172679
  0.6322731515819271  0.4294715005861534  0.6267459719013146
  0.7655224649043859  0.9615054341505669  0.5032700240854879
  0.3672472383697638  0.5705283039197013  0.1267430546190482
  0.7340021795676961  0.9615059110418542  0.0032708621059570
  0.8672473509814438  0.4294715687744031  0.1267433067384189
  0.2340022015850849  0.0384940686399844  0.0032709029298559
 
             NaN             NaN             NaN
             NaN             NaN             NaN
             NaN             NaN             NaN
             NaN             NaN             NaN
             NaN             NaN             NaN
             NaN             NaN             NaN
             NaN             NaN             NaN
             NaN             NaN             NaN
             NaN             NaN             NaN
             NaN             NaN             NaN
             NaN             NaN             NaN
             NaN             NaN             NaN
