Zr               O                      
   1.00000000000000     
     5.2534812585301403    0.0000000000000000    0.0000000000000000
     0.0000000000000000    5.0477997715844696    0.0000000000000000
     0.0000000000000000    0.0000000000000000    5.0675932957653602
   Zr   O 
     4     8
Direct
  0.0312050847501837  0.7673012744088226  0.2510465380756841
  0.5312050611414350  0.2326989903673677  0.2510465366864594
  0.9683189849738483  0.2327000112540318  0.7510423736050669
  0.4683189503409508  0.7673002552268073  0.7510423672634801
  0.2620159190772569  0.0384898940013443  0.5029219022560625
  0.1675075002075346  0.5705196029865647  0.5795297576717715
  0.6675075464269327  0.4294802465410683  0.5795298175268400
  0.7620159125936468  0.9615100798579306  0.5029216667135969
  0.3320145120027149  0.5705208224666904  0.0795292320764744
  0.7375104718053223  0.9615113120282359  0.0029216961837548
  0.8320144739576847  0.4294789994614945  0.0795293074356422
  0.2375104597225004  0.0384886293996303  0.0029219332051724
 
             NaN             NaN             NaN
             NaN             NaN             NaN
             NaN             NaN             NaN
             NaN             NaN             NaN
             NaN             NaN             NaN
             NaN             NaN             NaN
             NaN             NaN             NaN
             NaN             NaN             NaN
             NaN             NaN             NaN
             NaN             NaN             NaN
             NaN             NaN             NaN
             NaN             NaN             NaN
