Zr               O                      
   1.00000000000000     
     5.2534812585301403    0.0000000000000000    0.0000000000000000
     0.0000000000000000    5.0477997715844696    0.0000000000000000
     0.0000000000000000    0.0000000000000000    5.0675932957653602
   Zr   O 
     4     8
Direct
  0.0312025303166692  0.7673027074011998  0.2511384996930630
  0.5312025040091939  0.2326976038616877  0.2511384808042720
  0.9683199148538506  0.2327023882595682  0.7511333811319076
  0.4683198746721615  0.7672979197484295  0.7511333906841173
  0.2602626598033098  0.0384875529173101  0.5027478208154506
  0.1322846206319426  0.5705167125270663  0.6684239316613940
  0.6322844201983031  0.4294831081441401  0.6684239061796688
  0.7602626364382772  0.9615124027116124  0.5027474880276515
  0.3672381502640079  0.5705155739486614  0.1684201590928041
  0.7392646179241353  0.9615140125214268  0.0027471132226538
  0.8672383590969375  0.4294842261794258  0.1684201419441962
  0.2392645887912082  0.0384859097794532  0.0027474483428307
 
             NaN             NaN             NaN
             NaN             NaN             NaN
             NaN             NaN             NaN
             NaN             NaN             NaN
             NaN             NaN             NaN
             NaN             NaN             NaN
             NaN             NaN             NaN
             NaN             NaN             NaN
             NaN             NaN             NaN
             NaN             NaN             NaN
             NaN             NaN             NaN
             NaN             NaN             NaN
