Zr               O                      
   1.00000000000000     
     5.2534812585301403    0.0000000000000000    0.0000000000000000
     0.0000000000000000    5.0477997715844696    0.0000000000000000
     0.0000000000000000    0.0000000000000000    5.0675932957653602
   Zr   O 
     4     8
Direct
  0.0311642138139518  0.7673242022868578  0.2525179239537465
  0.5311641470255779  0.2326768062764870  0.2525176425714619
  0.9683338630538856  0.2327380433426143  0.7524984940345192
  0.4683337396403218  0.7672628875727625  0.7524987419936764
  0.2339637706941033  0.0384524366567973  0.5001365992062716
  0.1323414414464494  0.5704582777193536  0.8768149243820247
  0.6323407632801832  0.4295411459340741  0.8768135775714399
  0.7339634941077335  0.9615472455168401  0.5001348077384691
  0.3671927097352281  0.5704519240934616  0.3768056814615832
  0.7655768097063316  0.9615545199192894  0.0001283688061378
  0.8671933996744059  0.4295475132045397  0.3768043179730824
  0.2655765248218245  0.0384451154767973  0.0001301754077048
 
             NaN             NaN             NaN
             NaN             NaN             NaN
             NaN             NaN             NaN
             NaN             NaN             NaN
             NaN             NaN             NaN
             NaN             NaN             NaN
             NaN             NaN             NaN
             NaN             NaN             NaN
             NaN             NaN             NaN
             NaN             NaN             NaN
             NaN             NaN             NaN
             NaN             NaN             NaN
