Zr               O                      
   1.00000000000000     
     5.2534812585301403    0.0000000000000000    0.0000000000000000
     0.0000000000000000    5.0477997715844696    0.0000000000000000
     0.0000000000000000    0.0000000000000000    5.0675932957653602
   Zr   O 
     4     8
Direct
  0.0311667682474663  0.7673227692944806  0.2524259623363676
  0.5311667041578190  0.2326781927821671  0.2524256984536493
  0.9683329331738832  0.2327356663370779  0.7524074865076784
  0.4683328153091111  0.7672652230511403  0.7524077185730391
  0.2357170299680504  0.0384547777408315  0.5003106806468836
  0.1323376533921490  0.5704621733732012  0.8629221915339826
  0.6323370070747245  0.4295372767480785  0.8629209328119885
  0.7357167702631031  0.9615449226631583  0.5003089864244146
  0.3671957391038134  0.5704561674171416  0.3629133133036646
  0.7638226635875185  0.9615518194260986  0.0003029517672388
  0.8671963969692413  0.4295432940695321  0.3629120395711567
  0.2638223957531167  0.0384478350969744  0.0003046602700465
 
             NaN             NaN             NaN
             NaN             NaN             NaN
             NaN             NaN             NaN
             NaN             NaN             NaN
             NaN             NaN             NaN
             NaN             NaN             NaN
             NaN             NaN             NaN
             NaN             NaN             NaN
             NaN             NaN             NaN
             NaN             NaN             NaN
             NaN             NaN             NaN
             NaN             NaN             NaN
