Hf4 O8
1.0
       10.4425001144         0.0000000000         0.0000000000
        0.0000000000        10.0336608887         0.0000000000
        0.0000000000         0.0000000000        10.0730047226
   Hf    O
   32   64
Direct
     0.499997849         0.000001419         0.000000195
     0.499997849         0.000001419         0.500000195
     0.499997849         0.500001419         0.000000195
     0.499997849         0.500001419         0.500000195
     0.999997849         0.000001419         0.000000195
     0.999997849         0.000001419         0.500000195
     0.999997849         0.500001419         0.000000195
     0.999997849         0.500001419         0.500000195
     0.033126904         0.232176608         0.250000657
     0.033126904         0.232176608         0.750000657
     0.033126904         0.732176608         0.250000657
     0.033126904         0.732176608         0.750000657
     0.533126904         0.232176608         0.250000657
     0.533126904         0.232176608         0.750000657
     0.533126904         0.732176608         0.250000657
     0.533126904         0.732176608         0.750000657
     0.283126914         0.000003462         0.250000684
     0.283126914         0.000003462         0.750000684
     0.283126914         0.500003463         0.250000684
     0.283126914         0.500003463         0.750000684
     0.783126914         0.000003462         0.250000684
     0.783126914         0.000003462         0.750000684
     0.783126914         0.500003463         0.250000684
     0.783126914         0.500003463         0.750000684
     0.249997857         0.232178643         0.000000170
     0.249997857         0.232178643         0.500000170
     0.249997857         0.732178643         0.000000170
     0.249997857         0.732178643         0.500000170
     0.749997857         0.232178643         0.000000170
     0.749997857         0.232178643         0.500000170
     0.749997857         0.732178643         0.000000170
     0.749997857         0.732178643         0.500000170
     0.332410975         0.402309837         0.068554510
     0.332410975         0.402309837         0.568554511
     0.332410975         0.902309838         0.068554510
     0.332410975         0.902309838         0.568554511
     0.832410975         0.402309837         0.068554510
     0.832410975         0.402309837         0.568554511
     0.832410975         0.902309838         0.068554510
     0.832410975         0.902309838         0.568554511
     0.384106283         0.136424723         0.374277472
     0.384106283         0.136424723         0.874277472
     0.384106283         0.636424723         0.374277472
     0.384106283         0.636424723         0.874277472
     0.884106283         0.136424723         0.374277472
     0.884106283         0.136424723         0.874277472
     0.884106283         0.636424723         0.374277472
     0.884106283         0.636424723         0.874277472
     0.450716191         0.402309927         0.318553490
     0.450716191         0.402309927         0.818553491
     0.450716191         0.902309927         0.318553490
     0.450716191         0.902309927         0.818553491
     0.950716191         0.402309927         0.318553490
     0.950716191         0.402309927         0.818553491
     0.950716191         0.902309927         0.318553490
     0.950716191         0.902309927         0.818553491
     0.399019572         0.136424619         0.124277061
     0.399019572         0.136424619         0.624277061
     0.399019572         0.636424618         0.124277061
     0.399019572         0.636424618         0.624277061
     0.899019572         0.136424619         0.124277061
     0.899019572         0.136424619         0.624277061
     0.899019572         0.636424618         0.124277061
     0.899019572         0.636424618         0.624277061
     0.200716228         0.329870035         0.318553327
     0.200716228         0.329870035         0.818553327
     0.200716228         0.829870035         0.318553327
     0.200716228         0.829870035         0.818553327
     0.700716228         0.329870035         0.318553327
     0.700716228         0.329870035         0.818553327
     0.700716228         0.829870035         0.318553327
     0.700716228         0.829870035         0.818553327
     0.149019592         0.095755381         0.124277032
     0.149019592         0.095755381         0.624277032
     0.149019592         0.595755381         0.124277032
     0.149019592         0.595755381         0.624277032
     0.649019592         0.095755381         0.124277032
     0.649019592         0.095755381         0.624277032
     0.649019592         0.595755381         0.124277032
     0.649019592         0.595755381         0.624277032
     0.082410936         0.329870111         0.068554340
     0.082410936         0.329870111         0.568554340
     0.082410936         0.829870111         0.068554340
     0.082410936         0.829870111         0.568554340
     0.582410936         0.329870111         0.068554340
     0.582410936         0.329870111         0.568554340
     0.582410936         0.829870111         0.068554340
     0.582410936         0.829870111         0.568554340
     0.134106260         0.095755292         0.374277444
     0.134106260         0.095755292         0.874277444
     0.134106260         0.595755291         0.374277444
     0.134106260         0.595755291         0.874277444
     0.634106260         0.095755292         0.374277444
     0.634106260         0.095755292         0.874277444
     0.634106260         0.595755291         0.374277444
     0.634106260         0.595755291         0.874277444
