Zr               O                      
   1.00000000000000     
     5.2534812585301403    0.0000000000000000    0.0000000000000000
     0.0000000000000000    5.0477997715844696    0.0000000000000000
     0.0000000000000000    0.0000000000000000    5.0675932957653602
   Zr   O 
     4     8
Direct
  0.0311616593803876  0.7673256352791853  0.2526098855711325
  0.5311615898933368  0.2326754197708283  0.2526095866892462
  0.9683347929339163  0.2327404203482004  0.7525895015613457
  0.4683346639715538  0.7672605520943563  0.7525897654142710
  0.2322105114201420  0.0384500955727916  0.4999625177656100
  0.3671896803666712  0.5704476807698171  0.3906980496195587
  0.8671904023795207  0.4295517323395686  0.3906965963750508
  0.7322102179523426  0.9615495683705291  0.4999606290525165
  0.1323452295007712  0.5704543820654777  0.8907076572300667
  0.7673309558251447  0.9615572204124945  0.9999537858450012
  0.6323445194856347  0.4295450151201123  0.8907062223308699
  0.2673306538905891  0.0384423958566273  0.9999556905453062
 
             NaN             NaN             NaN
             NaN             NaN             NaN
             NaN             NaN             NaN
             NaN             NaN             NaN
             NaN             NaN             NaN
             NaN             NaN             NaN
             NaN             NaN             NaN
             NaN             NaN             NaN
             NaN             NaN             NaN
             NaN             NaN             NaN
             NaN             NaN             NaN
             NaN             NaN             NaN
