Zr               O                      
   1.00000000000000     
     5.2534812585301403    0.0000000000000000    0.0000000000000000
     0.0000000000000000    5.0477997715844696    0.0000000000000000
     0.0000000000000000    0.0000000000000000    5.0675932957653602
   Zr   O 
     4     8
Direct
  0.0311795404150388  0.7673156043325946  0.2519661542494731
  0.5311794898190243  0.2326851253105673  0.2519659778645860
  0.9683282837738716  0.2327237813093959  0.7519524488734746
  0.4683281936530577  0.7672769004430293  0.7519526014698528
  0.2444833263377859  0.0384664831610024  0.5011810878499432
  0.2849676061835140  0.5704772958002593  0.4684522823469237
  0.7849680499284801  0.4295222970107702  0.4684514521434053
  0.7444831510399510  0.9615333083947490  0.5011798798541420
  0.2145619928839579  0.5704817398777209  0.9684577174609572
  0.7550519329934531  0.9615383169601444  0.0011758665727442
  0.7145615595623696  0.4295178322018245  0.9684569044328057
  0.2550517504095779  0.0384614331978597  0.0011770845817551
 
             NaN             NaN             NaN
             NaN             NaN             NaN
             NaN             NaN             NaN
             NaN             NaN             NaN
             NaN             NaN             NaN
             NaN             NaN             NaN
             NaN             NaN             NaN
             NaN             NaN             NaN
             NaN             NaN             NaN
             NaN             NaN             NaN
             NaN             NaN             NaN
             NaN             NaN             NaN
