Zr               O                      
   1.00000000000000     
     5.2534812585301403    0.0000000000000000    0.0000000000000000
     0.0000000000000000    5.0477997715844696    0.0000000000000000
     0.0000000000000000    0.0000000000000000    5.0675932957653602
   Zr   O 
     4     8
Direct
  0.0311769859815243  0.7673170373249718  0.2520581158668520
  0.5311769326867832  0.2326837388048872  0.2520579219823986
  0.9683292136538739  0.2327261583149323  0.7520434564003153
  0.4683291179842684  0.7672745649646515  0.7520436248904900
  0.2427300670638388  0.0384641420769682  0.5010070064093313
  0.1323225011749471  0.5704777559885912  0.8073512601418145
  0.6323219822528898  0.4295218000040961  0.8073503537741828
  0.7427298748845814  0.9615356312484309  0.5010057011681965
  0.3672078565781547  0.5704731407118615  0.3073438406719902
  0.7568060791122662  0.9615410174533352  0.0010012836116431
  0.8672083861485831  0.4295264175295017  0.3073429259634537
  0.2568058794782857  0.0384587135776826  0.0010025997194134
 
             NaN             NaN             NaN
             NaN             NaN             NaN
             NaN             NaN             NaN
             NaN             NaN             NaN
             NaN             NaN             NaN
             NaN             NaN             NaN
             NaN             NaN             NaN
             NaN             NaN             NaN
             NaN             NaN             NaN
             NaN             NaN             NaN
             NaN             NaN             NaN
             NaN             NaN             NaN
