Zr               O                      
   1.00000000000000     
     5.2534812585301403    0.0000000000000000    0.0000000000000000
     0.0000000000000000    5.0477997715844696    0.0000000000000000
     0.0000000000000000    0.0000000000000000    5.0675932957653602
   Zr   O 
     4     8
Direct
  0.0311872037155823  0.7673113053554630  0.2516902693973364
  0.5311871612157475  0.2326892848276074  0.2516901455111480
  0.9683254941338646  0.2327166502927867  0.7516794262929523
  0.4683254206594256  0.7672839068781627  0.7516795312079410
  0.2497431041596272  0.0384735064131050  0.5017033321717790
  0.1323073489577453  0.5704933386039812  0.7517803287496463
  0.6323069574310551  0.4295063232601137  0.7517797747363772
  0.7497429795060597  0.9615263398337035  0.5017024159119785
  0.3672199740524960  0.5704901140065815  0.2517743680403157
  0.7497894946370138  0.9615302154805718  0.0016996154560474
  0.8672203753279248  0.4295095409894714  0.2517738123557507
  0.2497893632034547  0.0384695920583908  0.0017005391687803
 
             NaN             NaN             NaN
             NaN             NaN             NaN
             NaN             NaN             NaN
             NaN             NaN             NaN
             NaN             NaN             NaN
             NaN             NaN             NaN
             NaN             NaN             NaN
             NaN             NaN             NaN
             NaN             NaN             NaN
             NaN             NaN             NaN
             NaN             NaN             NaN
             NaN             NaN             NaN
