Zr               O                      
   1.00000000000000     
     5.2534812585301403    0.0000000000000000    0.0000000000000000
     0.0000000000000000    5.0477997715844696    0.0000000000000000
     0.0000000000000000    0.0000000000000000    5.0675932957653602
   Zr   O 
     4     8
Direct
  0.0311923125826112  0.7673084393707086  0.2515063461625786
  0.5311922754802296  0.2326920578389675  0.2515062572755227
  0.9683236343738599  0.2327118962817138  0.7514974112392707
  0.4683235719970043  0.7672885778349183  0.7514974843666664
  0.2532496227075214  0.0384781885811734  0.5020514950530028
  0.2262375531955243  0.5704984493934120  0.5239910200093476
  0.7262377981777064  0.4295012717759192  0.5239906348351226
  0.7532495318167989  0.9615216941263398  0.5020507732838695
  0.2732882524433364  0.5705012811722057  0.0239934747687158
  0.7462812023993877  0.9615248144941901  0.0020487813782495
  0.7732880167600271  0.4294984158316595  0.0239931059342240
  0.2462811050660392  0.0384750312987450  0.0020495088934638
 
             NaN             NaN             NaN
             NaN             NaN             NaN
             NaN             NaN             NaN
             NaN             NaN             NaN
             NaN             NaN             NaN
             NaN             NaN             NaN
             NaN             NaN             NaN
             NaN             NaN             NaN
             NaN             NaN             NaN
             NaN             NaN             NaN
             NaN             NaN             NaN
             NaN             NaN             NaN
