Zr               O                      
   1.00000000000000     
     5.2534812585301403    0.0000000000000000    0.0000000000000000
     0.0000000000000000    5.0477997715844696    0.0000000000000000
     0.0000000000000000    0.0000000000000000    5.0675932957653602
   Zr   O 
     4     8
Direct
  0.0311948670161257  0.7673070063783314  0.2514143845451997
  0.5311948326124707  0.2326934443446476  0.2514143131577100
  0.9683227044938576  0.2327095192761774  0.7514064037124299
  0.4683226476657936  0.7672909133132961  0.7514064609460291
  0.2550028819814685  0.0384805296652075  0.5022255764936148
  0.1322959847948439  0.5705050255655237  0.7101021302055202
  0.6322956888146791  0.4294947157021269  0.7101018404580230
  0.7550028079721685  0.9615193712726580  0.5022249519698150
  0.3672290621582519  0.5705028439776214  0.2100972635665599
  0.7445270562805746  0.9615221140009993  0.0022233643393506
  0.8672293672124312  0.4294968835844486  0.2100969771499734
  0.2445269759973314  0.0384777509189220  0.0022239937558055
 
             NaN             NaN             NaN
             NaN             NaN             NaN
             NaN             NaN             NaN
             NaN             NaN             NaN
             NaN             NaN             NaN
             NaN             NaN             NaN
             NaN             NaN             NaN
             NaN             NaN             NaN
             NaN             NaN             NaN
             NaN             NaN             NaN
             NaN             NaN             NaN
             NaN             NaN             NaN
