Zr               O                      
   1.00000000000000     
     5.2534812585301403    0.0000000000000000    0.0000000000000000
     0.0000000000000000    5.0477997715844696    0.0000000000000000
     0.0000000000000000    0.0000000000000000    5.0675932957653602
   Zr   O 
     4     8
Direct
  0.0311846492820678  0.7673127383478402  0.2517822310147153
  0.5311846040835064  0.2326878983219274  0.2517820896289606
  0.9683264240138669  0.2327190272983231  0.7517704338197930
  0.4683263449906363  0.7672815713997849  0.7517705546285782
  0.2479898448856801  0.0384711653290708  0.5015292507311671
  0.1323111370120458  0.5704894429501337  0.7656730615976883
  0.6323107136365138  0.4295101924461093  0.7656724194958286
  0.7479897033506901  0.9615286626873853  0.5015282372260330
  0.3672169446839106  0.5704858706829015  0.2656667361982343
  0.7515436407558269  0.9615329159737627  0.0015250324949463
  0.8672173780330894  0.4295137601244789  0.2656660907576764
  0.2515434922721624  0.0384668724382138  0.0015260543064386
 
             NaN             NaN             NaN
             NaN             NaN             NaN
             NaN             NaN             NaN
             NaN             NaN             NaN
             NaN             NaN             NaN
             NaN             NaN             NaN
             NaN             NaN             NaN
             NaN             NaN             NaN
             NaN             NaN             NaN
             NaN             NaN             NaN
             NaN             NaN             NaN
             NaN             NaN             NaN
