Zr               O                      
   1.00000000000000     
     5.2534812585301403    0.0000000000000000    0.0000000000000000
     0.0000000000000000    5.0477997715844696    0.0000000000000000
     0.0000000000000000    0.0000000000000000    5.0675932957653602
   Zr   O 
     4     8
Direct
  0.0311693226809808  0.7673213363021034  0.2523340007189887
  0.5311692612900600  0.2326795792878471  0.2523337543358366
  0.9683320032938809  0.2327332893315415  0.7523164789808376
  0.4683318909779004  0.7672675585295181  0.7523166951524018
  0.2374702892419975  0.0384571188248657  0.5004847620874955
  0.3319516485739058  0.5704603729257371  0.4240212922169846
  0.8319522513290991  0.4295391171986509  0.4240201059900315
  0.7374700464184727  0.9615425998094764  0.5004831651103601
  0.1675809852364551  0.5704661068421331  0.9240291116147503
  0.7620685174687054  0.9615491189329077  0.0004775347283399
  0.6675803938042435  0.4295333652979565  0.9240279432316711
  0.2620682666844090  0.0384505547171514  0.0004791451323882
 
             NaN             NaN             NaN
             NaN             NaN             NaN
             NaN             NaN             NaN
             NaN             NaN             NaN
             NaN             NaN             NaN
             NaN             NaN             NaN
             NaN             NaN             NaN
             NaN             NaN             NaN
             NaN             NaN             NaN
             NaN             NaN             NaN
             NaN             NaN             NaN
             NaN             NaN             NaN
