Zr               O                      
   1.00000000000000     
     5.2534812585301403    0.0000000000000000    0.0000000000000000
     0.0000000000000000    5.0477997715844696    0.0000000000000000
     0.0000000000000000    0.0000000000000000    5.0675932957653602
   Zr   O 
     4     8
Direct
  0.0311999758831547  0.7673041403935770  0.2512304613104419
  0.5311999468769528  0.2326962173560077  0.2512304249220847
  0.9683208447338529  0.2327047652651046  0.7512243886587484
  0.4683207990033722  0.7672955842700517  0.7512244141047546
  0.2585094005293627  0.0384852118332759  0.5025737393748386
  0.1322884086862430  0.5705128168732188  0.6823166645094361
  0.6322881764037618  0.4294869773301357  0.6823165509391202
  0.7585093602829076  0.9615147255652943  0.5025733093417060
  0.3672351208954225  0.5705113306249814  0.1823125272507227
  0.7410187640429484  0.9615167130146176  0.0025725302615527
  0.8672353618021020  0.4294884453144334  0.1823124203461219
  0.2410187178599159  0.0384831901592761  0.0025729634804890
 
             NaN             NaN             NaN
             NaN             NaN             NaN
             NaN             NaN             NaN
             NaN             NaN             NaN
             NaN             NaN             NaN
             NaN             NaN             NaN
             NaN             NaN             NaN
             NaN             NaN             NaN
             NaN             NaN             NaN
             NaN             NaN             NaN
             NaN             NaN             NaN
             NaN             NaN             NaN
